problems/csplib-prob056/sonet-models/noch/O2/lingeling/model_2_1-s2ring15-solution000001.eprime-solution
language ESSENCE' 1.0

letting network_ExplicitWithFlagsR6_Flags be [1, 1, 4, 0, 0, 0; int(1..6)]
letting network_ExplicitWithFlagsR6_Values_ExplicitVarSizeWithDummy be
        [[1, 4, 7, 8, 9; int(1..5)], [2, 3, 6, 8, 10; int(1..5)], [3, 5, 6, 7, 9; int(1..5)],
         [1, 1, 1, 1, 1; int(1..5)], [1, 1, 1, 1, 1; int(1..5)], [1, 1, 1, 1, 1; int(1..5)]; int(1..6)]
